presolving:
   (0.0s) running MILP presolver
   (0.0s) MILP presolver found nothing
(round 1, exhaustive) 0 del vars, 0 del conss, 0 add conss, 0 chg bounds, 0 chg sides, 0 chg coeffs, 1349 upgd conss, 0 impls, 1349 clqs
   (0.2s) probing: 1000/2678 (37.3%) - 0 fixings, 0 aggregations, 999 implications, 0 bound changes
   (0.2s) probing: 1001/2678 (37.4%) - 0 fixings, 0 aggregations, 1000 implications, 0 bound changes
   (0.2s) probing aborted: 1000/1000 successive useless probings
   (0.2s) symmetry computation started: requiring (bin +, int -, cont +), (fixed: bin -, int +, cont -)
   (0.2s) no symmetry present
presolving (2 rounds: 2 fast, 2 medium, 2 exhaustive):
 0 deleted vars, 0 deleted constraints, 0 added constraints, 0 tightened bounds, 0 added holes, 0 changed sides, 0 changed coefficients
 0 implications, 2349 cliques
presolved problem has 2678 variables (2678 bin, 0 int, 0 impl, 0 cont) and 1375 constraints
   1349 constraints of type <setppc>
     26 constraints of type <linear>
transformed objective value is always integral (scale: 1)
Presolving Time: 0.24

 time | node  | left  |LP iter|LP it/n|mem/heur|mdpt |vars |cons |rows |cuts |sepa|confs|strbr|  dualbound   | primalbound  |  gap   | compl. 
p 0.3s|     1 |     0 |     1 |     - |  clique|   0 |2678 |1375 |1375 |   0 |  0 |   0 |   0 | 0.000000e+00 | 4.553000e+03 |    Inf | unknown
  0.3s|     1 |     0 |   738 |     - |    27M |   0 |2678 |1402 |1375 |   0 |  0 |  27 |   0 | 4.053143e+03 | 4.553000e+03 |  12.33%| unknown
  0.4s|     1 |     0 |   794 |     - |    28M |   0 |2678 |1402 |1387 |  12 |  1 |  27 |   0 | 4.060094e+03 | 4.553000e+03 |  12.14%| unknown
  0.4s|     1 |     0 |   823 |     - |    29M |   0 |2678 |1402 |1400 |  25 |  2 |  27 |   0 | 4.062527e+03 | 4.553000e+03 |  12.07%| unknown
r 0.4s|     1 |     0 |   823 |     - |shifting|   0 |2678 |1402 |1400 |  25 |  2 |  27 |   0 | 4.062527e+03 | 4.265000e+03 |   4.98%| unknown
  0.4s|     1 |     0 |   868 |     - |    30M |   0 |2678 |1402 |1409 |  34 |  3 |  27 |   0 | 4.064269e+03 | 4.265000e+03 |   4.94%| unknown
  0.5s|     1 |     0 |   930 |     - |    31M |   0 |2678 |1402 |1421 |  46 |  4 |  27 |   0 | 4.065656e+03 | 4.265000e+03 |   4.90%| unknown
  0.5s|     1 |     0 |   979 |     - |    31M |   0 |2678 |1402 |1434 |  59 |  5 |  27 |   0 | 4.068432e+03 | 4.265000e+03 |   4.83%| unknown
  0.5s|     1 |     0 |  1082 |     - |    31M |   0 |2678 |1402 |1445 |  70 |  6 |  27 |   0 | 4.071326e+03 | 4.265000e+03 |   4.76%| unknown
  0.6s|     1 |     0 |  1154 |     - |    32M |   0 |2678 |1402 |1457 |  82 |  7 |  27 |   0 | 4.073590e+03 | 4.265000e+03 |   4.70%| unknown
  0.6s|     1 |     0 |  1245 |     - |    32M |   0 |2678 |1402 |1467 |  92 |  8 |  27 |   0 | 4.075388e+03 | 4.265000e+03 |   4.65%| unknown
  0.7s|     1 |     0 |  1367 |     - |    32M |   0 |2678 |1402 |1478 | 103 |  9 |  27 |   0 | 4.077016e+03 | 4.265000e+03 |   4.61%| unknown
  0.7s|     1 |     0 |  1423 |     - |    33M |   0 |2678 |1402 |1487 | 112 | 10 |  27 |   0 | 4.077680e+03 | 4.265000e+03 |   4.59%| unknown
  0.7s|     1 |     0 |  1456 |     - |    33M |   0 |2678 |1402 |1495 | 120 | 11 |  27 |   0 | 4.078157e+03 | 4.265000e+03 |   4.58%| unknown
  0.8s|     1 |     0 |  1510 |     - |    33M |   0 |2678 |1402 |1501 | 126 | 12 |  27 |   0 | 4.078610e+03 | 4.265000e+03 |   4.57%| unknown
 time | node  | left  |LP iter|LP it/n|mem/heur|mdpt |vars |cons |rows |cuts |sepa|confs|strbr|  dualbound   | primalbound  |  gap   | compl. 
  0.8s|     1 |     0 |  1597 |     - |    33M |   0 |2678 |1402 |1510 | 135 | 13 |  27 |   0 | 4.080738e+03 | 4.265000e+03 |   4.52%| unknown
  0.8s|     1 |     0 |  1639 |     - |    34M |   0 |2678 |1402 |1522 | 147 | 14 |  27 |   0 | 4.081401e+03 | 4.265000e+03 |   4.50%| unknown
  0.9s|     1 |     0 |  1728 |     - |    34M |   0 |2678 |1402 |1531 | 156 | 15 |  27 |   0 | 4.082265e+03 | 4.265000e+03 |   4.48%| unknown
  0.9s|     1 |     0 |  1802 |     - |    34M |   0 |2678 |1402 |1541 | 166 | 16 |  27 |   0 | 4.083146e+03 | 4.265000e+03 |   4.45%| unknown
  0.9s|     1 |     0 |  1896 |     - |    35M |   0 |2678 |1402 |1549 | 174 | 17 |  27 |   0 | 4.083910e+03 | 4.265000e+03 |   4.43%| unknown
  0.9s|     1 |     0 |  1917 |     - |    35M |   0 |2678 |1402 |1554 | 179 | 18 |  27 |   0 | 4.084175e+03 | 4.265000e+03 |   4.43%| unknown
  1.0s|     1 |     0 |  1985 |     - |    35M |   0 |2678 |1402 |1560 | 185 | 19 |  27 |   0 | 4.084689e+03 | 4.265000e+03 |   4.41%| unknown
  1.0s|     1 |     0 |  2086 |     - |    35M |   0 |2678 |1402 |1551 | 192 | 20 |  27 |   0 | 4.085627e+03 | 4.265000e+03 |   4.39%| unknown
  1.0s|     1 |     0 |  2137 |     - |    35M |   0 |2678 |1402 |1560 | 201 | 21 |  27 |   0 | 4.086391e+03 | 4.265000e+03 |   4.37%| unknown
  1.1s|     1 |     0 |  2169 |     - |    36M |   0 |2678 |1402 |1563 | 204 | 22 |  27 |   0 | 4.087048e+03 | 4.265000e+03 |   4.35%| unknown
  1.1s|     1 |     0 |  2257 |     - |    36M |   0 |2678 |1402 |1569 | 210 | 23 |  27 |   0 | 4.088015e+03 | 4.265000e+03 |   4.33%| unknown
  1.1s|     1 |     0 |  2308 |     - |    36M |   0 |2678 |1402 |1577 | 218 | 24 |  27 |   0 | 4.088360e+03 | 4.265000e+03 |   4.32%| unknown
  1.2s|     1 |     0 |  2386 |     - |    37M |   0 |2678 |1402 |1587 | 228 | 25 |  27 |   0 | 4.089030e+03 | 4.265000e+03 |   4.30%| unknown
  1.2s|     1 |     0 |  2401 |     - |    37M |   0 |2678 |1402 |1573 | 233 | 26 |  27 |   0 | 4.089119e+03 | 4.265000e+03 |   4.30%| unknown
  1.2s|     1 |     0 |  2460 |     - |    37M |   0 |2678 |1401 |1577 | 237 | 27 |  27 |   0 | 4.089594e+03 | 4.265000e+03 |   4.29%| unknown
 time | node  | left  |LP iter|LP it/n|mem/heur|mdpt |vars |cons |rows |cuts |sepa|confs|strbr|  dualbound   | primalbound  |  gap   | compl. 
  1.2s|     1 |     0 |  2511 |     - |    37M |   0 |2678 |1400 |1586 | 246 | 28 |  27 |   0 | 4.089895e+03 | 4.265000e+03 |   4.28%| unknown
  1.3s|     1 |     0 |  2547 |     - |    37M |   0 |2678 |1400 |1589 | 249 | 29 |  27 |   0 | 4.090176e+03 | 4.265000e+03 |   4.27%| unknown
  1.3s|     1 |     0 |  2585 |     - |    37M |   0 |2678 |1400 |1598 | 258 | 30 |  27 |   0 | 4.090308e+03 | 4.265000e+03 |   4.27%| unknown
  1.3s|     1 |     0 |  2613 |     - |    37M |   0 |2678 |1400 |1605 | 265 | 31 |  27 |   0 | 4.090448e+03 | 4.265000e+03 |   4.27%| unknown
  1.4s|     1 |     0 |  2642 |     - |    37M |   0 |2678 |1400 |1588 | 272 | 32 |  27 |   0 | 4.090498e+03 | 4.265000e+03 |   4.27%| unknown
  1.4s|     1 |     0 |  2668 |     - |    37M |   0 |2678 |1399 |1594 | 278 | 33 |  27 |   0 | 4.090625e+03 | 4.265000e+03 |   4.26%| unknown
  1.4s|     1 |     0 |  2702 |     - |    37M |   0 |2678 |1399 |1597 | 281 | 34 |  27 |   0 | 4.090780e+03 | 4.265000e+03 |   4.26%| unknown
  1.4s|     1 |     0 |  2724 |     - |    37M |   0 |2678 |1399 |1602 | 286 | 35 |  27 |   0 | 4.090846e+03 | 4.265000e+03 |   4.26%| unknown
  1.5s|     1 |     0 |  2781 |     - |    37M |   0 |2678 |1399 |1608 | 292 | 36 |  27 |   0 | 4.090981e+03 | 4.265000e+03 |   4.25%| unknown
  1.5s|     1 |     0 |  2816 |     - |    37M |   0 |2678 |1399 |1614 | 298 | 37 |  27 |   0 | 4.091047e+03 | 4.265000e+03 |   4.25%| unknown
L 3.0s|     1 |     0 |  9077 |     - |    rens|   0 |2678 |1401 |1614 | 298 | 37 |  32 |   0 | 4.091047e+03 | 4.186000e+03 |   2.32%| unknown
  3.0s|     1 |     0 |  9077 |     - |    38M |   0 |2678 |1398 |1614 | 298 | 37 |  32 |   0 | 4.091047e+03 | 4.186000e+03 |   2.32%| unknown
  3.0s|     1 |     0 |  9111 |     - |    38M |   0 |2678 |1395 |1620 | 304 | 38 |  32 |   0 | 4.091118e+03 | 4.186000e+03 |   2.32%| unknown
  3.0s|     1 |     0 |  9126 |     - |    38M |   0 |2678 |1395 |1621 | 305 | 39 |  32 |   0 | 4.091151e+03 | 4.186000e+03 |   2.32%| unknown
  3.5s|     1 |     2 |  9126 |     - |    38M |   0 |2678 |1394 |1621 | 305 | 39 |  32 |  21 | 4.091685e+03 | 4.186000e+03 |   2.31%| unknown
 time | node  | left  |LP iter|LP it/n|mem/heur|mdpt |vars |cons |rows |cuts |sepa|confs|strbr|  dualbound   | primalbound  |  gap   | compl. 
 14.7s|   100 |    97 | 18619 | 160.1 |    48M |  18 |2678 |1408 |1542 | 509 |  1 |  51 |1063 | 4.091939e+03 | 4.186000e+03 |   2.30%|   2.45%
 17.2s|   200 |   185 | 31086 | 142.3 |    51M |  27 |2678 |1419 |1547 | 611 |  1 |  62 |1219 | 4.091950e+03 | 4.186000e+03 |   2.30%|   2.46%
L17.3s|   201 |   186 | 31092 | 141.6 |    rins|  27 |2678 |1419 |1547 | 611 |  1 |  62 |1220 | 4.091950e+03 | 4.179000e+03 |   2.13%|   2.46%
 19.1s|   300 |   269 | 39488 | 122.8 |    52M |  34 |2678 |1418 |1534 | 692 |  1 |  62 |1332 | 4.091958e+03 | 4.179000e+03 |   2.13%|   4.80%
 20.7s|   400 |   355 | 45764 | 107.8 |    53M |  39 |2678 |1425 |1546 | 758 |  1 |  69 |1420 | 4.091958e+03 | 4.179000e+03 |   2.13%|   5.23%
L20.8s|   401 |   331 | 45794 | 107.6 |crossove|  39 |2678 |1425 |1546 | 758 |  1 |  69 |1421 | 4.091958e+03 | 4.166000e+03 |   1.81%|   5.24%
 22.2s|   500 |   420 | 54121 | 102.9 |    57M |  49 |2678 |1432 |1546 | 859 |  1 |  80 |1455 | 4.091958e+03 | 4.166000e+03 |   1.81%|   6.46%
 23.7s|   600 |   510 | 61597 |  98.2 |    57M |  49 |2678 |1437 |1541 | 971 |  1 |  85 |1515 | 4.091958e+03 | 4.166000e+03 |   1.81%|   7.08%
L23.8s|   601 |   509 | 61684 |  98.2 |    rins|  49 |2678 |1437 |1541 | 971 |  1 |  85 |1515 | 4.091958e+03 | 4.164000e+03 |   1.76%|   7.08%
 24.9s|   700 |   592 | 68173 |  93.6 |    59M |  49 |2678 |1450 |1539 |1053 |  1 |  98 |1534 | 4.091958e+03 | 4.164000e+03 |   1.76%|   7.48%
 27.0s|   800 |   676 | 82157 |  99.4 |    59M |  49 |2678 |1452 |1543 |1247 |  1 | 100 |1562 | 4.091958e+03 | 4.164000e+03 |   1.76%|   7.66%
 29.1s|   900 |   770 | 94736 | 102.3 |    61M |  49 |2678 |1011 |1548 |1411 |  1 | 110 |1579 | 4.091964e+03 | 4.164000e+03 |   1.76%|   7.76%
 30.7s|  1000 |   868 |103520 | 100.9 |    62M |  49 |2678 |1033 |1551 |1512 |  1 | 132 |1600 | 4.092267e+03 | 4.164000e+03 |   1.75%|   7.76%
 32.4s|  1100 |   968 |114799 | 101.9 |    62M |  49 |2678 |1048 |1548 |1658 |  1 | 148 |1609 | 4.092267e+03 | 4.164000e+03 |   1.75%|   7.83%
 33.9s|  1200 |  1068 |124787 | 101.8 |    64M |  49 |2678 |1071 |1539 |1815 |  1 | 171 |1614 | 4.092267e+03 | 4.164000e+03 |   1.75%|   7.85%
 time | node  | left  |LP iter|LP it/n|mem/heur|mdpt |vars |cons |rows |cuts |sepa|confs|strbr|  dualbound   | primalbound  |  gap   | compl. 
 35.7s|  1300 |  1168 |135751 | 102.4 |    66M |  49 |2678 |1071 |1536 |1985 |  1 | 171 |1617 | 4.092479e+03 | 4.164000e+03 |   1.75%|   7.90%
 37.2s|  1400 |  1268 |146061 | 102.4 |    67M |  49 |2678 |1098 |1563 |2109 |  1 | 199 |1621 | 4.092638e+03 | 4.164000e+03 |   1.74%|   7.94%
 38.9s|  1500 |  1368 |157124 | 103.0 |    68M |  49 |2678 |1127 |1540 |2265 |  1 | 228 |1622 | 4.092956e+03 | 4.164000e+03 |   1.74%|   7.96%
 40.4s|  1600 |  1468 |169301 | 104.1 |    68M |  49 |2678 |1124 |1533 |2369 |  1 | 231 |1628 | 4.092966e+03 | 4.164000e+03 |   1.74%|   7.97%
 42.2s|  1700 |  1568 |180634 | 104.7 |    70M |  49 |2678 |1139 |1548 |2524 |  1 | 249 |1632 | 4.093333e+03 | 4.164000e+03 |   1.73%|   8.03%
 43.7s|  1800 |  1668 |191074 | 104.7 |    71M |  49 |2678 |1162 |1541 |2644 |  1 | 275 |1637 | 4.093454e+03 | 4.164000e+03 |   1.72%|   8.06%
 45.2s|  1900 |  1768 |200301 | 104.0 |    71M |  49 |2678 |1165 |1547 |2756 |  1 | 278 |1655 | 4.093516e+03 | 4.164000e+03 |   1.72%|   8.09%
 46.9s|  2000 |  1868 |210030 | 103.7 |    71M |  49 |2678 |1175 |1540 |2877 |  1 | 293 |1668 | 4.093516e+03 | 4.164000e+03 |   1.72%|   8.10%
 47.9s|  2100 |  1968 |216705 | 101.9 |    71M |  49 |2678 |1174 |1540 |2917 |  1 | 296 |1677 | 4.093567e+03 | 4.164000e+03 |   1.72%|   8.10%
 49.1s|  2200 |  2068 |224177 | 100.7 |    72M |  49 |2678 |1182 |1542 |3017 |  1 | 311 |1687 | 4.093567e+03 | 4.164000e+03 |   1.72%|   8.12%
 50.4s|  2300 |  2166 |233985 | 100.6 |    72M |  49 |2678 |1204 |1549 |3127 |  1 | 342 |1689 | 4.093567e+03 | 4.164000e+03 |   1.72%|   8.13%
 51.7s|  2400 |  2266 |241212 |  99.4 |    73M |  49 |2678 |1214 |1550 |3246 |  1 | 359 |1703 | 4.093567e+03 | 4.164000e+03 |   1.72%|   8.14%
 53.1s|  2500 |  2366 |250181 |  99.0 |    74M |  49 |2678 |1215 |1547 |3352 |  1 | 369 |1708 | 4.093667e+03 | 4.164000e+03 |   1.72%|   8.14%
 54.3s|  2600 |  2466 |258698 |  98.5 |    74M |  49 |2678 |1233 |1548 |3453 |  1 | 395 |1711 | 4.093667e+03 | 4.164000e+03 |   1.72%|   8.16%
 55.3s|  2700 |  2566 |265755 |  97.4 |    76M |  49 |2678 |1227 |1540 |3540 |  2 | 399 |1714 | 4.093667e+03 | 4.164000e+03 |   1.72%|   8.19%
 time | node  | left  |LP iter|LP it/n|mem/heur|mdpt |vars |cons |rows |cuts |sepa|confs|strbr|  dualbound   | primalbound  |  gap   | compl. 
 56.8s|  2800 |  2666 |276730 |  97.9 |    77M |  49 |2678 |1220 |1554 |3635 |  1 | 406 |1717 | 4.093667e+03 | 4.164000e+03 |   1.72%|   8.26%
 57.6s|  2900 |  2766 |283119 |  96.7 |    77M |  49 |2678 |1215 |1552 |3671 |  1 | 406 |1717 | 4.093733e+03 | 4.164000e+03 |   1.72%|   8.26%
 59.4s|  3000 |  2864 |293758 |  97.0 |    79M |  49 |2678 |1227 |1568 |3910 |  5 | 420 |1720 | 4.093745e+03 | 4.164000e+03 |   1.72%|   8.26%
 60.4s|  3100 |  2962 |300313 |  96.0 |    80M |  49 |2678 |1232 |1550 |3994 |  1 | 431 |1723 | 4.093745e+03 | 4.164000e+03 |   1.72%|   8.26%
 61.6s|  3200 |  3060 |307547 |  95.3 |    81M |  49 |2678 |1237 |1549 |4118 |  1 | 442 |1727 | 4.093745e+03 | 4.164000e+03 |   1.72%|   8.27%
 62.6s|  3300 |  3160 |314779 |  94.6 |    81M |  49 |2678 |1243 |1546 |4191 |  1 | 452 |1732 | 4.093779e+03 | 4.164000e+03 |   1.72%|   8.28%
 63.6s|  3400 |  3258 |322642 |  94.1 |    81M |  49 |2678 |1246 |1552 |4220 |  1 | 460 |1738 | 4.093785e+03 | 4.164000e+03 |   1.72%|   8.28%
 64.9s|  3500 |  3354 |331293 |  93.9 |    81M |  49 |2678 |1258 |1553 |4308 |  1 | 480 |1754 | 4.093823e+03 | 4.164000e+03 |   1.71%|   8.29%
 65.7s|  3600 |  3454 |337095 |  92.9 |    82M |  49 |2678 |1262 |1541 |4359 |  1 | 484 |1761 | 4.093861e+03 | 4.164000e+03 |   1.71%|   8.30%
 66.6s|  3700 |  3554 |342760 |  91.9 |    82M |  52 |2678 |1269 |1541 |4411 |  1 | 495 |1770 | 4.093861e+03 | 4.164000e+03 |   1.71%|   8.31%
 67.4s|  3800 |  3654 |347960 |  90.9 |    83M |  56 |2678 |1275 |1554 |4472 |  1 | 503 |1782 | 4.093861e+03 | 4.164000e+03 |   1.71%|   8.31%
 68.2s|  3900 |  3754 |352752 |  89.8 |    84M |  69 |2678 |1294 |1554 |4493 |  1 | 523 |1817 | 4.093864e+03 | 4.164000e+03 |   1.71%|   8.31%
 69.2s|  4000 |  3850 |358581 |  89.0 |    84M |  74 |2678 |1302 |1553 |4625 |  1 | 532 |1827 | 4.093864e+03 | 4.164000e+03 |   1.71%|   8.31%
L69.3s|  4007 |  3852 |359239 |  89.0 |    alns|  74 |2678 |1312 |1548 |4627 |  2 | 542 |1827 | 4.093864e+03 | 4.162000e+03 |   1.66%|   8.31%
 70.2s|  4100 |  3935 |365518 |  88.5 |    85M |  74 |2678 |1320 |1545 |4679 |  1 | 561 |1834 | 4.093869e+03 | 4.162000e+03 |   1.66%|   8.32%
 time | node  | left  |LP iter|LP it/n|mem/heur|mdpt |vars |cons |rows |cuts |sepa|confs|strbr|  dualbound   | primalbound  |  gap   | compl. 
 71.3s|  4200 |  4021 |372928 |  88.2 |    85M |  74 |2678 |1325 |1559 |4788 |  2 | 566 |1842 | 4.093869e+03 | 4.162000e+03 |   1.66%|   8.32%
L71.5s|  4207 |  4016 |373447 |  88.1 |crossove|  74 |2678 |1325 |1566 |4803 |  5 | 566 |1844 | 4.093869e+03 | 4.159000e+03 |   1.59%|   8.32%
 72.9s|  4300 |  4099 |380746 |  87.9 |    88M |  74 |2678 |1328 |1563 |4981 |  1 | 576 |1868 | 4.093873e+03 | 4.159000e+03 |   1.59%|   8.32%
 74.5s|  4400 |  4195 |389154 |  87.8 |    90M |  74 |2678 |1329 |1557 |5137 |  1 | 581 |1884 | 4.093877e+03 | 4.159000e+03 |   1.59%|   8.33%
 75.5s|  4500 |  4295 |395034 |  87.2 |    91M |  74 |2678 |1332 |1552 |5215 |  1 | 588 |1888 | 4.093913e+03 | 4.159000e+03 |   1.59%|   8.34%
 76.7s|  4600 |  4389 |401279 |  86.7 |    93M |  77 |2678 |1334 |1544 |5309 |  1 | 598 |1896 | 4.093913e+03 | 4.159000e+03 |   1.59%|   8.35%
 77.7s|  4700 |  4489 |407797 |  86.2 |    93M |  77 |2678 |1344 |1544 |5401 |  1 | 617 |1906 | 4.093913e+03 | 4.159000e+03 |   1.59%|   8.35%
Restart triggered after 50 consecutive estimations that the remaining tree will be large
r78.6s|  4782 |  1807 |412808 |  85.8 |randroun|  77 |2678 |1350 |1542 |5448 |  1 | 630 |1908 | 4.093915e+03 | 4.106000e+03 |   0.30%|  13.16%
(run 1, node 4782) performing user restart

(restart) converted 91 cuts from the global cut pool into linear constraints

presolving:
(round 1, fast)       201 del vars, 355 del conss, 1 add conss, 0 chg bounds, 0 chg sides, 54 chg coeffs, 0 upgd conss, 0 impls, 833 clqs
   (78.6s) running MILP presolver
   (78.6s) MILP presolver found nothing
(round 2, exhaustive) 201 del vars, 355 del conss, 1 add conss, 0 chg bounds, 0 chg sides, 54 chg coeffs, 20 upgd conss, 0 impls, 833 clqs
(round 3, exhaustive) 201 del vars, 355 del conss, 1 add conss, 0 chg bounds, 0 chg sides, 80 chg coeffs, 20 upgd conss, 0 impls, 865 clqs
presolving (4 rounds: 4 fast, 3 medium, 3 exhaustive):
 201 deleted vars, 355 deleted constraints, 1 added constraints, 0 tightened bounds, 0 added holes, 0 changed sides, 80 changed coefficients
 0 implications, 865 cliques
presolved problem has 2477 variables (2477 bin, 0 int, 0 impl, 0 cont) and 1087 constraints
     15 constraints of type <knapsack>
    562 constraints of type <setppc>
     96 constraints of type <linear>
    414 constraints of type <logicor>
transformed objective value is always integral (scale: 1)
Presolving Time: 0.34
transformed 99/100 original solutions to the transformed problem space

 time | node  | left  |LP iter|LP it/n|mem/heur|mdpt |vars |cons |rows |cuts |sepa|confs|strbr|  dualbound   | primalbound  |  gap   | compl. 
 78.8s|     1 |     0 |413772 |     - |    99M |   0 |2477 |1087 | 673 |   0 |  0 | 630 |1908 | 4.093915e+03 | 4.106000e+03 |   0.30%| unknown
 78.8s|     1 |     0 |413772 |     - |    99M |   0 |2477 |1087 | 452 |   0 |  0 | 630 |1908 | 4.093915e+03 | 4.106000e+03 |   0.30%| unknown
 78.8s|     1 |     0 |413800 |     - |   100M |   0 |2477 | 858 | 456 |   4 |  1 | 630 |1908 | 4.093915e+03 | 4.106000e+03 |   0.30%| unknown
 78.8s|     1 |     0 |413800 |     - |   100M |   0 |2477 | 858 | 455 |   4 |  1 | 630 |1908 | 4.093915e+03 | 4.106000e+03 |   0.30%| unknown
 78.8s|     1 |     0 |413851 |     - |   100M |   0 |2477 | 856 | 463 |  12 |  2 | 630 |1908 | 4.093915e+03 | 4.106000e+03 |   0.30%| unknown
 78.8s|     1 |     0 |413851 |     - |   100M |   0 |2477 | 856 | 449 |  12 |  2 | 630 |1908 | 4.093915e+03 | 4.106000e+03 |   0.30%| unknown
 78.9s|     1 |     0 |413880 |     - |   100M |   0 |2477 | 842 | 451 |  14 |  3 | 630 |1908 | 4.093915e+03 | 4.106000e+03 |   0.30%| unknown
 78.9s|     1 |     0 |413880 |     - |   100M |   0 |2477 | 842 | 451 |  14 |  3 | 630 |1908 | 4.093915e+03 | 4.106000e+03 |   0.30%| unknown
 78.9s|     1 |     0 |413899 |     - |   100M |   0 |2477 | 842 | 457 |  20 |  4 | 630 |1908 | 4.093915e+03 | 4.106000e+03 |   0.30%| unknown
 78.9s|     1 |     0 |413899 |     - |   100M |   0 |2477 | 842 | 457 |  20 |  4 | 630 |1908 | 4.093915e+03 | 4.106000e+03 |   0.30%| unknown
 78.9s|     1 |     0 |413907 |     - |   100M |   0 |2477 | 842 | 460 |  23 |  5 | 630 |1908 | 4.093915e+03 | 4.106000e+03 |   0.30%| unknown
 79.0s|     1 |     0 |413924 |     - |   100M |   0 |2477 | 842 | 464 |  27 |  6 | 630 |1908 | 4.093915e+03 | 4.106000e+03 |   0.30%| unknown
 79.0s|     1 |     0 |413924 |     - |   100M |   0 |2477 | 842 | 463 |  27 |  6 | 630 |1908 | 4.093915e+03 | 4.106000e+03 |   0.30%| unknown
 79.0s|     1 |     0 |413944 |     - |   100M |   0 |2477 | 841 | 466 |  30 |  7 | 630 |1908 | 4.093915e+03 | 4.106000e+03 |   0.30%| unknown
 79.0s|     1 |     0 |413944 |     - |   100M |   0 |2477 | 841 | 466 |  30 |  7 | 630 |1908 | 4.093915e+03 | 4.106000e+03 |   0.30%| unknown
 time | node  | left  |LP iter|LP it/n|mem/heur|mdpt |vars |cons |rows |cuts |sepa|confs|strbr|  dualbound   | primalbound  |  gap   | compl. 
 79.0s|     1 |     0 |413971 |     - |   100M |   0 |2477 | 841 | 468 |  32 |  8 | 630 |1908 | 4.093915e+03 | 4.106000e+03 |   0.30%| unknown
 79.0s|     1 |     0 |413971 |     - |   100M |   0 |2477 | 841 | 468 |  32 |  8 | 630 |1908 | 4.093915e+03 | 4.106000e+03 |   0.30%| unknown
 79.0s|     1 |     0 |413999 |     - |   100M |   0 |2477 | 841 | 474 |  38 |  9 | 630 |1908 | 4.093915e+03 | 4.106000e+03 |   0.30%| unknown
 79.0s|     1 |     0 |413999 |     - |   100M |   0 |2477 | 841 | 474 |  38 |  9 | 630 |1908 | 4.093915e+03 | 4.106000e+03 |   0.30%| unknown
 79.1s|     1 |     0 |414015 |     - |   100M |   0 |2477 | 841 | 479 |  43 | 10 | 630 |1908 | 4.093915e+03 | 4.106000e+03 |   0.30%| unknown
 79.1s|     1 |     0 |414028 |     - |   100M |   0 |2477 | 841 | 483 |  47 | 11 | 630 |1908 | 4.093915e+03 | 4.106000e+03 |   0.30%| unknown
 79.1s|     1 |     0 |414028 |     - |   100M |   0 |2477 | 841 | 483 |  47 | 11 | 630 |1908 | 4.093915e+03 | 4.106000e+03 |   0.30%| unknown
 79.1s|     1 |     0 |414034 |     - |   100M |   0 |2477 | 841 | 485 |  49 | 12 | 630 |1908 | 4.093915e+03 | 4.106000e+03 |   0.30%| unknown
 79.1s|     1 |     0 |414039 |     - |   100M |   0 |2477 | 841 | 476 |  50 | 13 | 630 |1908 | 4.093915e+03 | 4.106000e+03 |   0.30%| unknown
 79.4s|     1 |     2 |414732 |     - |   100M |   0 |2477 | 837 | 476 |  50 | 13 | 634 |1912 | 4.093915e+03 | 4.106000e+03 |   0.30%| unknown
 82.2s|   100 |    23 |420970 |  85.4 |   103M |  20 |2477 |1083 | 458 | 391 |  0 | 880 |2239 | 4.093915e+03 | 4.106000e+03 |   0.30%|   0.64%
 83.2s|   200 |    31 |425237 |  84.6 |   103M |  23 |2477 |1209 | 478 | 486 |  2 |1006 |2372 | 4.093915e+03 | 4.106000e+03 |   0.30%|   0.71%
 85.0s|   300 |    45 |431468 |  84.1 |   103M |  23 |2477 |1320 | 496 | 747 |  6 |1122 |2516 | 4.093915e+03 | 4.106000e+03 |   0.30%|   1.39%
 87.2s|   400 |    87 |439956 |  84.1 |   104M |  23 |2477 |1386 | 483 |1196 |  3 |1192 |2573 | 4.093915e+03 | 4.106000e+03 |   0.30%|   1.82%
 87.6s|   500 |    89 |442427 |  83.0 |   104M |  23 |2477 |1435 | 487 |1204 |  0 |1241 |2599 | 4.093915e+03 | 4.106000e+03 |   0.30%|   1.83%
 time | node  | left  |LP iter|LP it/n|mem/heur|mdpt |vars |cons |rows |cuts |sepa|confs|strbr|  dualbound   | primalbound  |  gap   | compl. 
 89.2s|   600 |   123 |448967 |  82.7 |   104M |  23 |2477 |1481 | 469 |1513 |  2 |1291 |2645 | 4.093915e+03 | 4.106000e+03 |   0.30%|   2.16%
 90.3s|   700 |   147 |453808 |  82.1 |   104M |  25 |2477 |1542 | 466 |1724 |  0 |1354 |2672 | 4.093915e+03 | 4.106000e+03 |   0.30%|   2.30%
 90.9s|   800 |   159 |456885 |  81.1 |   104M |  26 |2477 |1564 | 467 |1768 |  2 |1378 |2695 | 4.093915e+03 | 4.106000e+03 |   0.30%|   2.31%
 91.6s|   900 |   155 |459993 |  80.3 |   104M |  27 |2477 |1614 | 464 |1849 |  0 |1431 |2722 | 4.093915e+03 | 4.106000e+03 |   0.30%|   2.35%
 92.7s|  1000 |   191 |464949 |  79.7 |   104M |  27 |2477 |1639 | 470 |2032 |  2 |1463 |2754 | 4.093915e+03 | 4.106000e+03 |   0.30%|   2.54%
 93.7s|  1100 |   207 |469684 |  79.2 |   104M |  27 |2477 |1671 | 471 |2216 |  2 |1505 |2784 | 4.093915e+03 | 4.106000e+03 |   0.30%|   2.75%
*94.5s|  1158 |    80 |473752 |  79.1 |strongbr|  27 |2477 |1305 | 462 |2348 |  2 |1516 |2798 | 4.093915e+03 | 4.100000e+03 |   0.15%|  11.13%
 95.1s|  1200 |    94 |476037 |  78.9 |   105M |  27 |2477 |1324 | 466 |2456 |  2 |1540 |2809 | 4.093915e+03 | 4.100000e+03 |   0.15%|  13.31%
 96.0s|  1300 |    98 |479797 |  78.2 |   105M |  27 |2477 |1343 | 464 |2599 |  2 |1574 |2823 | 4.093915e+03 | 4.100000e+03 |   0.15%|  18.32%
 96.6s|  1400 |   104 |483293 |  77.5 |   105M |  27 |2477 |1350 | 463 |2686 |  2 |1618 |2837 | 4.093915e+03 | 4.100000e+03 |   0.15%|  18.97%
 97.0s|  1500 |   108 |486110 |  76.8 |   106M |  27 |2477 |1377 | 470 |2728 |  2 |1659 |2844 | 4.093915e+03 | 4.100000e+03 |   0.15%|  20.59%
 97.8s|  1600 |   108 |489838 |  76.1 |   106M |  27 |2477 |1400 | 464 |2858 |  2 |1725 |2858 | 4.093915e+03 | 4.100000e+03 |   0.15%|  21.27%
 98.4s|  1700 |   116 |492764 |  75.4 |   106M |  28 |2477 |1450 | 468 |2958 |  2 |1794 |2875 | 4.093915e+03 | 4.100000e+03 |   0.15%|  21.51%
 99.5s|  1800 |   112 |497249 |  75.0 |   106M |  28 |2477 |1476 | 472 |3160 |  2 |1858 |2889 | 4.093915e+03 | 4.100000e+03 |   0.15%|  26.30%
 99.8s|  1900 |   109 |499329 |  74.1 |   106M |  28 |2477 |1521 | 464 |3181 |  1 |1925 |2904 | 4.093915e+03 | 4.100000e+03 |   0.15%|  26.41%
 time | node  | left  |LP iter|LP it/n|mem/heur|mdpt |vars |cons |rows |cuts |sepa|confs|strbr|  dualbound   | primalbound  |  gap   | compl. 
  101s|  2000 |   125 |504257 |  73.8 |   106M |  28 |2477 |1537 | 448 |3435 |  2 |1989 |2914 | 4.093915e+03 | 4.100000e+03 |   0.15%|  27.33%
  102s|  2100 |   135 |508047 |  73.3 |   106M |  28 |2477 |1552 | 450 |3565 |  2 |2033 |2921 | 4.093915e+03 | 4.100000e+03 |   0.15%|  28.39%
  102s|  2200 |   159 |512009 |  72.8 |   106M |  28 |2477 |1584 | 464 |3675 |  2 |2077 |2928 | 4.093915e+03 | 4.100000e+03 |   0.15%|  28.68%
  103s|  2300 |   173 |514808 |  72.1 |   106M |  28 |2477 |1629 | 465 |3734 |  0 |2142 |2932 | 4.093915e+03 | 4.100000e+03 |   0.15%|  28.97%
  103s|  2400 |   169 |517514 |  71.5 |   106M |  28 |2477 |1650 | 481 |3799 |  0 |2171 |2936 | 4.093915e+03 | 4.100000e+03 |   0.15%|  29.04%
  104s|  2500 |   171 |521394 |  71.1 |   106M |  28 |2477 |1707 | 466 |3860 |  1 |2254 |2945 | 4.093915e+03 | 4.100000e+03 |   0.15%|  30.42%
  105s|  2600 |   165 |525106 |  70.6 |   107M |  28 |2477 |1736 | 462 |4030 |  0 |2311 |2959 | 4.094005e+03 | 4.100000e+03 |   0.15%|  31.68%
  106s|  2700 |   173 |528907 |  70.2 |   107M |  28 |2477 |1727 | 472 |4155 |  2 |2361 |2970 | 4.094137e+03 | 4.100000e+03 |   0.14%|  33.35%
  106s|  2800 |   187 |532930 |  69.8 |   107M |  28 |2477 |1781 | 465 |4271 |  2 |2439 |2976 | 4.094177e+03 | 4.100000e+03 |   0.14%|  35.09%
  107s|  2900 |   175 |536275 |  69.3 |   107M |  28 |2477 |1822 | 469 |4389 |  0 |2529 |2988 | 4.094269e+03 | 4.100000e+03 |   0.14%|  38.94%
  108s|  3000 |   181 |540204 |  68.9 |   107M |  28 |2477 |1824 | 462 |4579 |  1 |2585 |2995 | 4.094392e+03 | 4.100000e+03 |   0.14%|  41.71%
  110s|  3100 |   167 |544474 |  68.6 |   107M |  28 |2477 |1822 | 458 |4851 |  2 |2629 |3002 | 4.094435e+03 | 4.100000e+03 |   0.14%|  47.73%
  110s|  3200 |   171 |547649 |  68.1 |   107M |  28 |2477 |1805 | 464 |4936 |  0 |2652 |3021 | 4.094489e+03 | 4.100000e+03 |   0.13%|  47.99%
  111s|  3300 |   165 |552161 |  67.8 |   108M |  28 |2477 |1816 | 458 |5176 |  2 |2706 |3038 | 4.094566e+03 | 4.100000e+03 |   0.13%|  51.04%
  112s|  3400 |   165 |555470 |  67.4 |   109M |  28 |2477 |1823 | 467 |5289 |  0 |2772 |3061 | 4.094623e+03 | 4.100000e+03 |   0.13%|  52.61%
 time | node  | left  |LP iter|LP it/n|mem/heur|mdpt |vars |cons |rows |cuts |sepa|confs|strbr|  dualbound   | primalbound  |  gap   | compl. 
  113s|  3500 |   173 |557917 |  66.9 |   109M |  28 |2477 |1814 | 473 |5329 |  2 |2809 |3071 | 4.094643e+03 | 4.100000e+03 |   0.13%|  52.76%
  113s|  3600 |   183 |561155 |  66.5 |   110M |  28 |2477 |2031 | 464 |5415 |  0 |3078 |3089 | 4.094719e+03 | 4.100000e+03 |   0.13%|  52.89%
  114s|  3700 |   183 |564200 |  66.1 |   110M |  28 |2477 |2081 | 464 |5512 |  2 |3155 |3108 | 4.094728e+03 | 4.100000e+03 |   0.13%|  53.00%
* 114s|  3771 |    72 |566551 |  65.8 |    LP  |  28 |2477 |2152 | 466 |5579 |  1 |3265 |3121 | 4.094834e+03 | 4.098000e+03 |   0.08%|  62.63%
  114s|  3800 |    67 |567289 |  65.6 |   110M |  28 |2477 |2127 | 465 |5604 |  3 |3271 |3122 | 4.094834e+03 | 4.098000e+03 |   0.08%|  65.41%
  115s|  3900 |    47 |569835 |  65.2 |   110M |  28 |2477 |2106 |   0 |5701 |  0 |3321 |3137 | 4.094942e+03 | 4.098000e+03 |   0.07%|  77.82%
  115s|  4000 |    37 |572025 |  64.7 |   110M |  28 |2477 |2092 | 497 |5767 |  2 |3357 |3147 | 4.095172e+03 | 4.098000e+03 |   0.07%|  84.52%
  116s|  4100 |    15 |574116 |  64.2 |   110M |  28 |2477 |2080 | 493 |5789 |  0 |3403 |3160 | 4.095724e+03 | 4.098000e+03 |   0.06%|  94.83%

SCIP Status        : problem is solved [optimal solution found]
Solving Time (sec) : 115.82
Solving Nodes      : 4132 (total of 8914 nodes in 2 runs)
Primal Bound       : +4.09800000000000e+03 (457 solutions)
Dual Bound         : +4.09800000000000e+03
Gap                : 0.00 %
Solve Status: optimal
Solve Time: 115.82 seconds
